WARNING: for repeatability, setting FPU to use double precision
============================[ Problem Statistics ]=============================
|                                                                             |
|  Number of variables:           100                                         |
|  Number of clauses:             449                                         |
|  Parse time:                   0.00 s                                       |
|  Eliminated clauses:           0.00 Mb                                      |
|  Simplification time:          0.00 s                                       |
|                                                                             |
============================[ Search Statistics ]==============================
| Conflicts |          ORIGINAL         |          LEARNT          | Progress |
|           |    Vars  Clauses Literals |    Limit  Clauses Lit/Cl |          |
===============================================================================
|       100 |      98      443     1339 |      162      100      8 |  0.010 % |
===============================================================================
restarts              : 3
conflicts             : 205            (83401 /sec)
decisions             : 273            (0.00 % random) (111066 /sec)
propagations          : 5162           (2100081 /sec)
conflict literals     : 1496           (18.16 % deleted)
Memory used           : 13.00 MB
CPU time              : 0.002458 s

SATISFIABLE
